Generated by cif2cell 2.1.0.  :  Failed to get author information, No journal in
1.0
        4.1864891052         0.0000000000         0.0000000000
       -2.0932445526         3.6256059178         0.0000000000
        0.0000000000         0.0000000000        19.9385623932
   Gd    I
    1    2
Cartesian
     2.093244553         1.208535314         0.000000000
     0.000000000         2.417070627         2.025738001
     0.000000000         2.417070627        17.912824631
